sat
(= |goto_symex::&92;guard#1| true)
(= |goto_symex::&92;guard#2| false)
(= |nondet_symex::nondet1| false)
(= |memory_model::choice_rf_1_25_0_9_T_0| false)
(= |memory_model::choice_rf_1_25_2_39_T_1| true)
(= |memory_model::choice_rf_2_38_0_9_T_2| true)
(= |memory_model::choice_rf_2_38_1_26_T_3| false)
(= |memory_model::choice_rf_0_42_0_7_T_4| false)
(= |memory_model::choice_rf_0_42_0_38_T_5| true)
(= |memory_model::choice_rf_1_2_0_20_F_6| false)
(= |memory_model::choice_rf_1_2_1_1_F_7| true)
(= |memory_model::choice_rf_0_46_0_10_F_8| false)
(= |memory_model::choice_rf_0_46_1_24_F_9| true)
(= |memory_model::choice_rf_0_46_2_37_F_10| false)
(= |memory_model::choice_rf_1_23_0_10_F_11| false)
(= |memory_model::choice_rf_1_23_2_37_F_12| true)
(= |memory_model::choice_rf_2_36_0_10_F_13| true)
(= |memory_model::choice_rf_2_36_1_24_F_14| false)
(= |memory_model::choice_rf_0_65_0_11_F_15| false)
(= |memory_model::choice_rf_0_65_1_3_F_16| true)
(= |memory_model::choice_rf_0_64_0_12_F_17| false)
(= |memory_model::choice_rf_0_64_1_11_F_18| true)
(= |memory_model::choice_rf_0_63_0_13_F_19| false)
(= |memory_model::choice_rf_0_63_2_20_F_20| true)
(= |memory_model::choice_rf_2_18_0_13_F_21| false)
(= |memory_model::choice_rf_0_62_0_14_F_22| false)
(= |memory_model::choice_rf_0_62_2_23_F_23| true)
(= |memory_model::choice_rf_2_21_0_14_F_24| false)
(= |memory_model::choice_rf_2_22_0_15_F_25| true)
(= |memory_model::choice_rf_2_22_1_0_F_26| false)
(= |memory_model::choice_rf_0_48_0_16_F_27| false)
(= |memory_model::choice_rf_0_48_0_47_F_28| true)
(= |memory_model::choice_rf_0_61_0_17_F_29| false)
(= |memory_model::choice_rf_0_67_0_17_F_30| false)
(= |memory_model::choice_rf_0_67_0_66_F_31| true)
(= |memory_model::choice_rf_0_68_0_17_F_32| false)
(= |memory_model::choice_rf_0_68_0_66_F_33| true)
(= |memory_model::choice_rf_0_49_0_21_F_34| false)
(= |memory_model::choice_rf_0_49_1_18_F_35| false)
(= |memory_model::choice_rf_0_49_2_35_F_36| true)
(= |memory_model::choice_rf_1_10_0_21_F_37| true)
(= |memory_model::choice_rf_1_10_0_60_F_38| false)
(= |memory_model::choice_rf_1_10_2_35_F_39| false)
(= |memory_model::choice_rf_2_24_0_21_F_40| false)
(= |memory_model::choice_rf_2_24_0_60_F_41| false)
(= |memory_model::choice_rf_2_24_1_18_F_42| true)
(= |memory_model::choice_rf_0_54_0_24_F_43| true)
(= |memory_model::choice_rf_2_3_0_24_F_44| true)
(= |memory_model::choice_rf_2_3_0_57_F_45| false)
(= |memory_model::choice_rf_1_7_0_25_F_46| true)
(= |memory_model::choice_rf_2_2_0_25_F_47| true)
(= |memory_model::choice_rf_2_2_1_12_F_48| false)
(= |memory_model::choice_rf_2_0_0_26_F_49| true)
(= |memory_model::choice_rf_2_28_0_26_F_50| false)
(= |memory_model::choice_rf_2_28_2_8_F_51| true)
(= |memory_model::choice_rf_0_51_0_27_F_52| false)
(= |memory_model::choice_rf_0_51_2_9_F_53| true)
(= |memory_model::choice_rf_2_1_0_27_F_54| false)
(= |memory_model::choice_rf_2_1_0_56_F_55| false)
(= |memory_model::choice_rf_1_8_0_28_F_56| false)
(= |memory_model::choice_rf_1_8_2_11_F_57| true)
(= |memory_model::choice_rf_2_5_0_28_F_58| false)
(= |memory_model::choice_rf_2_5_1_14_F_59| false)
(= |memory_model::choice_rf_2_4_0_29_F_60| false)
(= |memory_model::choice_rf_2_29_0_29_F_61| false)
(= |memory_model::choice_rf_2_29_2_10_F_62| true)
(= |memory_model::choice_rf_0_53_0_32_F_63| false)
(= |memory_model::choice_rf_0_53_1_17_F_64| true)
(= |memory_model::choice_rf_0_53_2_14_F_65| false)
(= |memory_model::choice_rf_1_5_0_32_F_66| false)
(= |memory_model::choice_rf_1_5_2_14_F_67| true)
(= |memory_model::choice_rf_2_7_0_32_F_68| true)
(= |memory_model::choice_rf_2_7_1_17_F_69| false)
(= |memory_model::choice_rf_2_27_0_32_F_70| false)
(= |memory_model::choice_rf_2_27_1_17_F_71| true)
(= |memory_model::choice_rf_2_27_2_14_F_72| false)
(= |memory_model::choice_rf_0_55_0_33_F_73| false)
(= |memory_model::choice_rf_0_55_1_15_F_74| false)
(= |memory_model::choice_rf_0_55_2_12_F_75| false)
(= |memory_model::choice_rf_0_55_2_34_F_76| true)
(= |memory_model::choice_rf_1_9_0_33_F_77| false)
(= |memory_model::choice_rf_1_9_0_59_F_78| false)
(= |memory_model::choice_rf_1_9_2_12_F_79| true)
(= |memory_model::choice_rf_1_9_2_34_F_80| false)
(= |memory_model::choice_rf_2_6_0_33_F_81| true)
(= |memory_model::choice_rf_2_6_0_59_F_82| false)
(= |memory_model::choice_rf_2_6_1_15_F_83| false)
(= |memory_model::choice_rf_2_30_0_33_F_84| false)
(= |memory_model::choice_rf_2_30_0_59_F_85| false)
(= |memory_model::choice_rf_2_30_1_15_F_86| true)
(= |memory_model::choice_rf_2_30_2_12_F_87| false)
(= |memory_model::choice_rf_0_50_0_34_F_88| false)
(= |memory_model::choice_rf_0_50_1_16_F_89| true)
(= |memory_model::choice_rf_0_50_2_15_F_90| false)
(= |memory_model::choice_rf_1_4_0_34_F_91| false)
(= |memory_model::choice_rf_1_4_2_15_F_92| true)
(= |memory_model::choice_rf_2_25_0_34_F_93| false)
(= |memory_model::choice_rf_2_25_1_16_F_94| true)
(= |memory_model::choice_rf_2_25_2_15_F_95| false)
(= |memory_model::choice_rf_0_52_0_35_F_96| false)
(= |memory_model::choice_rf_0_52_1_13_F_97| false)
(= |memory_model::choice_rf_0_52_2_13_F_98| false)
(= |memory_model::choice_rf_0_52_2_32_F_99| true)
(= |memory_model::choice_rf_1_6_0_35_F_100| false)
(= |memory_model::choice_rf_1_6_0_58_F_101| false)
(= |memory_model::choice_rf_1_6_2_13_F_102| true)
(= |memory_model::choice_rf_1_6_2_32_F_103| false)
(= |memory_model::choice_rf_2_26_0_35_F_104| false)
(= |memory_model::choice_rf_2_26_0_58_F_105| false)
(= |memory_model::choice_rf_2_26_1_13_F_106| true)
(= |memory_model::choice_rf_2_26_2_13_F_107| false)
(= |memory_model::choice_rf_2_16_0_36_F_108| false)
(= |memory_model::choice_rf_2_19_0_36_F_109| false)
(= |memory_model::choice_rf_2_19_2_17_F_110| true)
(= |memory_model::choice_ws-ext_0_9_1_26_T_111| true)
(= |memory_model::choice_ws-ext_0_9_2_39_T_112| true)
(= |memory_model::choice_ws-ext_1_26_2_39_T_113| false)
(= |memory_model::choice_ws-ext_0_20_1_1_F_114| true)
(= |memory_model::choice_ws-ext_0_10_1_24_F_115| true)
(= |memory_model::choice_ws-ext_0_10_2_37_F_116| true)
(= |memory_model::choice_ws-ext_1_24_2_37_F_117| false)
(= |memory_model::choice_ws-ext_0_11_1_3_F_118| true)
(= |memory_model::choice_ws-ext_0_12_1_11_F_119| true)
(= |memory_model::choice_ws-ext_0_13_2_20_F_120| true)
(= |memory_model::choice_ws-ext_0_14_2_23_F_121| true)
(= |memory_model::choice_ws-ext_0_15_1_0_F_122| true)
(= |memory_model::choice_ws-ext_0_21_1_18_F_123| true)
(= |memory_model::choice_ws-ext_0_21_2_35_F_124| true)
(= |memory_model::choice_ws-ext_0_60_1_18_F_125| false)
(= |memory_model::choice_ws-ext_0_60_2_35_F_126| false)
(= |memory_model::choice_ws-ext_1_18_2_35_F_127| true)
(= |memory_model::choice_ws-ext_0_22_1_20_F_128| true)
(= |memory_model::choice_ws-ext_0_23_1_19_F_129| true)
(= |memory_model::choice_ws-ext_0_25_1_12_F_130| true)
(= |memory_model::choice_ws-ext_0_26_2_8_F_131| true)
(= |memory_model::choice_ws-ext_0_26_2_31_F_132| true)
(= |memory_model::choice_ws-ext_0_27_2_9_F_133| true)
(= |memory_model::choice_ws-ext_0_56_2_9_F_134| false)
(= |memory_model::choice_ws-ext_0_28_1_14_F_135| true)
(= |memory_model::choice_ws-ext_0_28_2_11_F_136| true)
(= |memory_model::choice_ws-ext_1_14_2_11_F_137| false)
(= |memory_model::choice_ws-ext_0_29_2_10_F_138| true)
(= |memory_model::choice_ws-ext_0_29_2_33_F_139| true)
(= |memory_model::choice_ws-ext_0_32_1_17_F_140| true)
(= |memory_model::choice_ws-ext_0_32_2_14_F_141| true)
(= |memory_model::choice_ws-ext_1_17_2_14_F_142| false)
(= |memory_model::choice_ws-ext_0_33_1_15_F_143| true)
(= |memory_model::choice_ws-ext_0_33_2_12_F_144| true)
(= |memory_model::choice_ws-ext_0_33_2_34_F_145| true)
(= |memory_model::choice_ws-ext_0_59_1_15_F_146| false)
(= |memory_model::choice_ws-ext_0_59_2_12_F_147| false)
(= |memory_model::choice_ws-ext_0_59_2_34_F_148| false)
(= |memory_model::choice_ws-ext_1_15_2_12_F_149| false)
(= |memory_model::choice_ws-ext_1_15_2_34_F_150| true)
(= |memory_model::choice_ws-ext_0_34_1_16_F_151| true)
(= |memory_model::choice_ws-ext_0_34_2_15_F_152| true)
(= |memory_model::choice_ws-ext_1_16_2_15_F_153| false)
(= |memory_model::choice_ws-ext_0_35_1_13_F_154| true)
(= |memory_model::choice_ws-ext_0_35_2_13_F_155| true)
(= |memory_model::choice_ws-ext_0_35_2_32_F_156| true)
(= |memory_model::choice_ws-ext_0_58_1_13_F_157| false)
(= |memory_model::choice_ws-ext_0_58_2_13_F_158| false)
(= |memory_model::choice_ws-ext_0_58_2_32_F_159| false)
(= |memory_model::choice_ws-ext_1_13_2_13_F_160| false)
(= |memory_model::choice_ws-ext_1_13_2_32_F_161| true)
(= |memory_model::choice_ws-ext_0_36_2_17_F_162| true)
(= |memory_model::choice_ws-ext_0_18_1_22_F_163| true)
(= |memory_model::choice_ws-ext_0_19_1_21_F_164| true)
(= |main$tmp_guard0#3| #b00000001)
(= |__CPROVER_next_thread_id#3| #b00000000000000000000000000000001)
(= |__unbuffered_cnt#2| #b00000000000000000000000000000010)
(= |y$w_buff0_used#2| #b00000000)
(= |y$r_buff0_thd0#2| #b00000000)
(= |y$w_buff0#2| #b00000000000000000000000000000001)
(= |y$w_buff1_used#2| #b00000000)
(= |y$r_buff1_thd0#2| #b00000000)
(= |y$w_buff1#2| #b00000000000000000000000000000000)
(= |y#2| #b00000000000000000000000000000001)
(= |y#4| #b00000000000000000000000000000001)
(= |y$w_buff0_used#6| #b00000000)
(= |y$w_buff1_used#6| #b00000000)
(= |y$r_buff0_thd0#8| #b00000000)
(= |y$r_buff1_thd0#7| #b00000000)
(= |__unbuffered_p0_EAX#2| #b00000000000000000000000000000001)
(= |__unbuffered_p0_EBX#2| #b00000000000000000000000000000000)
(= |__unbuffered_p1_EAX#2| #b00000000000000000000000000000001)
(= |__unbuffered_p1_EBX#2| #b00000000000000000000000000000000)
(= |main$tmp_guard1#2| #b00000000)
(= |main$tmp_guard1#3| #b10000000)
(= |main$tmp_guard1#6| #b00000000)
(= |pthread_create::1::this_thread_id!1@0#0| #b00000000000000000000000000000000)
(= |x#3| #b00000000000000000000000000000001)
(= |y#6| #b00000000000000000000000000000000)
(= |y$w_buff0_used#11| #b00000001)
(= |y$r_buff0_thd1#2| #b00000000)
(= |y$w_buff1_used#9| #b00000000)
(= |y$r_buff1_thd1#2| #b00000000)
(= |y$w_buff0#4| #b00000000000000000000000000000001)
(= |y$w_buff1#4| #b00000000000000000000000000000000)
(= |__unbuffered_cnt#4| #b00000000000000000000000000000001)
(= |pthread_create::1::this_thread_id!2@0#0| #b00000000000000000000000000000000)
(= |y$w_buff0#7| #b00000000000000000000000000000000)
(= |y$w_buff0_used#14| #b00000000)
(= |y$r_buff0_thd0#11| #b00000000)
(= |y$r_buff1_thd0#9| #b00000000)
(= |y$r_buff1_thd0#10| #b10000000)
(= |y$r_buff0_thd1#5| #b00000000)
(= |y$r_buff1_thd1#5| #b00000000)
(= |y$r_buff1_thd1#6| #b10000000)
(= |y$r_buff0_thd2#2| #b00000000)
(= |y$r_buff1_thd2#2| #b00000000)
(= |y$r_buff1_thd2#3| #b10000000)
(= |y$r_buff0_thd2#4| #b00000001)
(= |z#2| #b00000000000000000000000000000001)
(= |z#3| #b10000000000000000000000000000000)
(= |z#5| #b00000000000000000000000000000001)
(= |__unbuffered_p1_EAX#4| #b00000000000000000000000000000001)
(= |__unbuffered_p1_EAX#5| #b10000000000000000000000000000000)
(= |a#3| #b00000000000000000000000000000000)
(= |__unbuffered_p1_EBX#4| #b00000000000000000000000000000000)
(= |__unbuffered_p1_EBX#5| #b10000000000000000000000000000000)
(= |y$w_buff0_used#17| #b00000001)
(= |y$r_buff0_thd2#6| #b00000001)
(= |y$w_buff0#10| #b00000000000000000000000000000001)
(= |y$w_buff1_used#13| #b00000000)
(= |y$r_buff1_thd2#5| #b00000000)
(= |y$w_buff1#8| #b00000000000000000000000000000000)
(= |y#10| #b00000000000000000000000000000000)
(= |y#12| #b00000000000000000000000000000001)
(= |y$w_buff0_used#21| #b00000000)
(= |y$w_buff1_used#17| #b00000000)
(= |y$r_buff0_thd2#12| #b00000001)
(= |y$r_buff1_thd2#10| #b00000000)
(= |__unbuffered_cnt#7| #b00000000000000000000000000000000)
(= |__unbuffered_cnt#9| #b00000000000000000000000000000001)
(= |__CPROVER_threads_exited#1$wclk$8| #b00001001)
(= |__CPROVER_threads_exited#2$rclk$8| #b11011010)
(= |__CPROVER_threads_exited#5$wclk$8| #b10001011)
(= |__CPROVER_threads_exited#4$rclk$8| #b10001010)
(= |__CPROVER_threads_exited#3$wclk$8| #b11111111)
(= |x#1$wclk$8| #b00100000)
(= |x#3$rclk$8| #b01010111)
(= |__unbuffered_cnt#6$wclk$8| #b11000000)
(= |__unbuffered_cnt#2$rclk$8| #b11000001)
(= |__unbuffered_cnt#10$wclk$8| #b01100001)
(= |__unbuffered_cnt#1$wclk$8| #b00001010)
(= |__unbuffered_cnt#4$rclk$8| #b11000000)
(= |__unbuffered_cnt#7$rclk$8| #b01100001)
(= |__unbuffered_p0_EAX#4$wclk$8| #b01010111)
(= |__unbuffered_p0_EAX#2$rclk$8| #b11000101)
(= |__unbuffered_p0_EBX#4$wclk$8| #b01011011)
(= |__unbuffered_p0_EBX#2$rclk$8| #b11000101)
(= |__unbuffered_p1_EAX#6$wclk$8| #b00111111)
(= |__unbuffered_p1_EAX#2$rclk$8| #b11000101)
(= |__unbuffered_p1_EAX#1$wclk$8| #b00011001)
(= |__unbuffered_p1_EAX#5$rclk$8| #b00111111)
(= |__unbuffered_p1_EBX#6$wclk$8| #b01000110)
(= |__unbuffered_p1_EBX#2$rclk$8| #b11000101)
(= |__unbuffered_p1_EBX#1$wclk$8| #b00011010)
(= |__unbuffered_p1_EBX#5$rclk$8| #b01000110)
(= |a#1$wclk$8| #b00011011)
(= |a#3$rclk$8| #b01000110)
(= |a#2$wclk$8| #b01010100)
(= |main$tmp_guard1#5| #b00000000)
(= |y#9$wclk$8| #b01011011)
(= |y#2$rclk$8| #b11000011)
(= |y#13$wclk$8| #b01100000)
(= |y#1$wclk$8| #b00100001)
(= |y#6$rclk$8| #b01011011)
(= |y#5$wclk$8| #b11000011)
(= |y#10$rclk$8| #b01100000)
(= |y$r_buff0_thd0#1$wclk$8| #b00100100)
(= |y$r_buff0_thd0#11$rclk$8| #b00111101)
(= |y$r_buff0_thd0#10$wclk$8| #b11000011)
(= |y$r_buff0_thd1#1$wclk$8| #b00100101)
(= |y$r_buff0_thd1#2$rclk$8| #b01011011)
(= |y$r_buff0_thd1#5$rclk$8| #b00111101)
(= |y$r_buff0_thd1#4$wclk$8| #b01011011)
(= |y$r_buff0_thd2#1$wclk$8| #b00100110)
(= |y$r_buff0_thd2#2$rclk$8| #b00111101)
(= |y$r_buff0_thd2#6$rclk$8| #b01100000)
(= |y$r_buff1_thd0#11$wclk$8| #b00111101)
(= |y$r_buff1_thd0#2$rclk$8| #b11000011)
(= |y$r_buff1_thd0#1$wclk$8| #b00100111)
(= |y$r_buff1_thd0#10$rclk$8| #b00111101)
(= |y$r_buff1_thd0#8$wclk$8| #b11000011)
(= |y$r_buff1_thd1#1$wclk$8| #b00101000)
(= |y$r_buff1_thd1#2$rclk$8| #b01011011)
(= |y$r_buff1_thd1#7$wclk$8| #b00111101)
(= |y$r_buff1_thd1#6$rclk$8| #b00111101)
(= |y$r_buff1_thd1#4$wclk$8| #b01011011)
(= |y$r_buff1_thd2#1$wclk$8| #b00101001)
(= |y$r_buff1_thd2#3$rclk$8| #b00111101)
(= |y$r_buff1_thd2#5$rclk$8| #b01100000)
(= |y$w_buff0#6$wclk$8| #b01011011)
(= |y$w_buff0#2$rclk$8| #b11000011)
(= |y$w_buff0#9$wclk$8| #b00111101)
(= |y$w_buff0#1$wclk$8| #b00110000)
(= |y$w_buff0#4$rclk$8| #b01011011)
(= |y$w_buff0#7$rclk$8| #b00111101)
(= |y$w_buff0#10$rclk$8| #b01100000)
(= |y$w_buff0_used#13$wclk$8| #b01011011)
(= |y$w_buff0_used#2$rclk$8| #b11000011)
(= |y$w_buff0_used#16$wclk$8| #b00111101)
(= |y$w_buff0_used#25$wclk$8| #b01100000)
(= |y$w_buff0_used#1$wclk$8| #b00110001)
(= |y$w_buff0_used#11$rclk$8| #b01011011)
(= |y$w_buff0_used#10$wclk$8| #b11000011)
(= |y$w_buff0_used#14$rclk$8| #b00111101)
(= |y$w_buff0_used#17$rclk$8| #b01100000)
(= |y$w_buff1#6$wclk$8| #b01011011)
(= |y$w_buff1#2$rclk$8| #b11000011)
(= |y$w_buff1#7$wclk$8| #b00111101)
(= |y$w_buff1#1$wclk$8| #b00110010)
(= |y$w_buff1#4$rclk$8| #b01011011)
(= |y$w_buff1#8$rclk$8| #b01100000)
(= |y$w_buff1_used#11$wclk$8| #b01011011)
(= |y$w_buff1_used#2$rclk$8| #b11000011)
(= |y$w_buff1_used#12$wclk$8| #b00111101)
(= |y$w_buff1_used#19$wclk$8| #b01100000)
(= |y$w_buff1_used#1$wclk$8| #b00110011)
(= |y$w_buff1_used#9$rclk$8| #b01011011)
(= |y$w_buff1_used#8$wclk$8| #b11000011)
(= |y$w_buff1_used#13$rclk$8| #b01100000)
(= |z#1$wclk$8| #b00110100)
(= |z#3$rclk$8| #b00111110)
(= |z#5$rclk$8| #b00111111)
(= |x#2$wclk$8| #b01010110)
(= |__unbuffered_p0_EAX#1$wclk$8| #b00001011)
(= |__unbuffered_p0_EBX#1$wclk$8| #b00001100)
(= |y$flush_delayed#1$wclk$8| #b00100010)
(= |y$flush_delayed#3$wclk$8| #b01011011)
(= |y$mem_tmp#1$wclk$8| #b00100011)
(= |y$mem_tmp#2$wclk$8| #b01011011)
(= |y$r_buff0_thd2#5$wclk$8| #b00111101)
(= |y$r_buff0_thd2#14$wclk$8| #b01100000)
(= |y$r_buff1_thd2#4$wclk$8| #b00111101)
(= |y$r_buff1_thd2#11$wclk$8| #b01100000)
(= |z#4$wclk$8| #b00111110)
(= |weak$$choice0#1$wclk$8| #b00011110)
(= |weak$$choice0#2$wclk$8| #b01011011)
(= |weak$$choice2#1$wclk$8| #b00011111)
(= |weak$$choice2#2$wclk$8| #b01011011)
(= t1$40$spwnclk$8 #b00111000)
(= t1$45$spwnclk$8 #b00111100)
(= |main::1::t846!0@1$wclk$8| #b00000000)
(= |__CPROVER_dead_object#1$wclk$8| #b00000001)
(= |__CPROVER_deallocated#1$wclk$8| #b00000010)
(= |__CPROVER_malloc_is_new_array#1$wclk$8| #b00000011)
(= |__CPROVER_malloc_object#1$wclk$8| #b00000100)
(= |__CPROVER_malloc_size#1$wclk$8| #b00000101)
(= |__CPROVER_memory_leak#1$wclk$8| #b00000110)
(= |__CPROVER_next_thread_id#1$wclk$8| #b00000111)
(= |__CPROVER_pipe_count#1$wclk$8| #b00001000)
(= |main$tmp_guard0#1$wclk$8| #b00011100)
(= |main$tmp_guard1#1$wclk$8| #b00011101)
(= |y$read_delayed#1$wclk$8| #b00101010)
(= |y$read_delayed_var#1$wclk$8| #b00101011)
(= |main::1::t845!0@1#1$wclk$8| #b00110101)
(= |__CPROVER_next_thread_id#2$wclk$8| #b00110110)
(= |main::1::t845!0@1#2$wclk$8| #b00110111)
(= |main::1::t846!0@1#1$wclk$8| #b00111001)
(= |__CPROVER_next_thread_id#3$rclk$8| #b00111010)
(= |__CPROVER_next_thread_id#5$wclk$8| #b00111010)
(= |main::1::t846!0@1#2$wclk$8| #b00111011)
(= |main$tmp_guard0#2$wclk$8| #b11000001)
(= |main$tmp_guard0#3$rclk$8| #b11000010)
(= |y$r_buff0_thd0#2$rclk$8| #b11000011)
(= |main$tmp_guard1#3$rclk$8| #b11000101)
(= |main$tmp_guard1#4$wclk$8| #b11000101)
(= |main$tmp_guard1#5$rclk$8| #b11010110)
(= |main$tmp_guard1#6$rclk$8| #b11010111)
(= array_of.0 @fun_4)
(= |__CPROVER_threads_exited#2| @fun_4)
(= |__CPROVER_threads_exited#4| @fun_4)
(function @fun_4
 (type (Array (_ BitVec 32) (_ BitVec 1)))
 (default #b1))

real	0m0.015s
user	0m0.011s
sys	0m0.004s
State: AC Run_time: 0.01740860939025879